# acidic Xe clathrate hydrate : sI-Takeuchi
1.000000
     11.80200000        0.00000000        0.00000000
      0.00000000       11.80200000        0.00000000
      0.00000000        0.00000000       11.80200000
 O  H  Xe Cl
    58    95   5   3
Cartesian
      0.08389109        0.11943008        3.07015868
      0.08942426        0.05830713        8.95819441
      0.08401154        2.33515702        1.46784632
      0.07964396        2.30676226       10.52002168
      0.09257261        9.67634496        1.51348459
      0.07949686        9.65886173       10.56993833
      6.00108697        3.07624623        0.06245842
      6.00222796        8.94087776        0.11093474
      6.02111459        1.51120167        2.32047638
      6.01119300       10.55530322        2.32257108
      6.01039158        1.47135363        9.64950746
      5.99014450       10.51908092        9.66966584
      3.74322892        4.63207629        0.09704057
      3.73812578        7.39423369        0.08203631
      2.33277210        0.08529823        4.62779378
      2.32326135        0.10183015        7.38241843
      2.26554522        3.80642402        2.24563751
      2.24752681        3.79347875        9.75531060
      2.27391262        8.18605129        2.25094344
      2.22288302        8.19209902        9.73939201
      3.83330106        2.23636840        3.82274244
      3.84958227        9.74582766        3.81288167
      3.81854218        2.24700104        8.18090090
      3.81046368        9.75235879        8.20344205
      8.26120550        4.62512852        0.08810766
      8.24873100        7.38143068        0.06574820
      9.64934038        0.06417636        4.63391159
      9.65765777        0.07889334        7.38796132
      9.74992528        3.84253615        2.26165424
      9.74069744        3.82884713        9.73420621
      9.72271630        8.18056662        2.23855527
      9.73639011        8.18686703        9.72936888
      8.20285734        2.24755760        3.81166518
      8.16209195        9.72716061        3.81436495
      8.18735433        2.25284380        8.17638904
      8.15540198        9.75077467        8.18396410
      3.04981533        6.00871780        5.98879872
      8.96935396        6.00085511        6.02156487
      1.49545024        5.98143118        8.26390828
     10.54173536        6.01135011        8.26980501
      1.48762719        5.99665996        3.71962810
     10.52728731        6.02845795        3.74636929
      4.61594032        3.72786875        6.00320337
      7.39467403        3.73495528        5.98953439
      4.61830480        8.27248573        6.02257201
      7.38989303        8.26277247        6.00790198
      0.31681403       10.09406950        6.85028076
     -1.08275597        8.18945550        6.44077976
     -0.07093237        9.36040950        4.59969376
      1.36224403        8.06766250        6.15702976
      0.33533910        4.08156619        6.91576482
     -1.06423090        2.17695219        6.50626382
     -0.05240730        3.34790619        4.66517782
      1.38076910        2.05515919        6.22251382
      9.32983133        1.09787370        0.86761424
      7.93026133       -0.80674030        0.45811324 
      8.94208493        0.36421370       -1.38297276
     10.37526133       -0.92853330        0.17436324
     11.07577396        0.13137727        3.64652001
     11.85165781        0.92078867        2.48280989
      0.90018453       11.83920382        8.38342383
      0.11783764       11.06450397        9.55381431
     11.09565139        2.88847501        1.71506686
     11.86163376        2.22487173        0.48143607
     11.87946730        1.47194233        9.97925182
     11.08794642        2.83266612       10.23333166
      0.09187198       10.51250365        2.05297433
      0.89792068        9.16157904        1.78734936
      0.87650610        9.11851606       10.31613598
      0.10084241        9.76096463       11.55776143
      5.19109415        3.65143465       11.84118311
      5.97313304        2.48491683       11.06589108
      6.81099882        8.36296180        0.12569044
      6.03965141        9.53111695        0.90936362
      5.99471391        2.05195869        1.48628191
      5.21945231        1.77231057        2.84794322
      5.20873773       10.30801136        2.85614246
      5.99950784       11.54308076        2.22288522
      6.81626595        1.71713782        9.11980990
      6.02406251        0.48418291        9.75436434
      6.01277506        9.97910512       10.50462776
      6.78723774       10.24365105        9.14142967
      3.82222653        5.62172942        0.10233607
      3.22041530        4.37647120        0.90463243
      4.57928251        7.92505609        0.08641288
      3.22484888        7.68096468       11.08137148
      1.49392838        0.09551029        4.09313357
      2.84318463       11.08408016        4.33852408
      2.23660287        0.10390674        6.39307200
      2.85461128        0.90686751        7.62853882
      2.81892700        3.21352112        2.82345279
      1.48899928        3.26211880        1.94327516
      2.75739015        4.09879033       10.55293002
      1.47207077        3.25890062       10.07834724
      2.79811692        7.87144242        1.46421777
      1.98282773        7.37802568        2.75267169
      2.79715170        8.76298869        9.15774037
      1.95847123        7.40466217        9.19265579
      3.29544663        1.46177091        4.14264996
      4.10490467        2.75569209        4.62671599
      4.14263801        9.20643488        4.59443449
      3.28493251        9.14630459        3.25178026
      4.60036435        1.94794293        8.71797270
      3.25703689        2.80564212        8.78587324
      3.30243686       10.55296968        7.90227393
      4.58661646       10.07249659        8.73949911
      7.42001076        4.09429510       11.88311610
      8.76507861        4.34717498        0.89960728
      8.16748668        6.39193499       11.85966135
      8.77701495        7.63573273       11.06244761
      9.73841094       11.85545114        5.62288112
      9.12010275       11.06203871        4.37946600
     10.49557316       11.86666578        7.92463209
      9.15955511        0.89350450        7.66791988
      9.18851207        3.26610193        2.84952516
     10.02979352        4.62233421        2.81206585
      9.20903084        4.14991130       10.51299179
     10.04142926        4.63228435        9.23027266
      9.21989331        7.88532770        1.43246355
     10.50095727        8.71929897        1.92946799
      9.17714307        8.78009002        9.15626550
     10.50072853        8.73774146       10.05075964
      8.70134092        1.44041204        4.11118777
      7.42678643        1.93715187        3.27096499
      7.39266364       10.04553037        3.27029851
      8.71964810        9.16373674        3.20993739
      7.89051147        2.79335155        7.39680131
      8.75132204        2.85401594        8.73704554
      8.69537405       10.52564070        7.86543871
      7.88395911        9.23237518        7.37898343
      3.62476732        6.81847550        5.97418822
      2.47417559        6.03674698        5.17980218
      8.39441206        5.19181770        6.03957543
      9.55127974        5.97280565        6.82682798
      1.76951273        5.17772207        8.78065026
      2.02940882        5.97830795        7.42568609
     10.30100401        6.82820147        8.78513779
     11.53068611        6.01397047        8.17808904
      1.72167952        5.17995266        3.20188998
      0.49935516        5.99732300        3.81550292
     10.23476723        6.82184921        3.22376868
      9.99683834        6.03062503        4.58653325
      4.08663561        4.56853422        5.99807806
      4.33391917        3.22652452        6.81502979
      6.40580266        3.81835266        5.98220940
      7.64176314        3.20011658        5.18900277
      5.60647471        8.18056221        6.03570074
      4.37066900        8.80695159        6.82336074
      7.92815025        7.42743339        6.01544134
      7.66008575        8.76113444        5.19013839     
      3.85509603        8.94978650        5.75276176
      3.70244714        4.05728319        6.62824582 
     10.98811333       -0.04640930        2.58009524
      3.03707093        0.00950129        0.01002152    
      5.98700316        5.98307086        8.98648673
      5.99944796        6.00586749        2.99417936
      0.06941951        6.02148977        0.06935912
      6.01729962        0.07036043        5.99906274
      0.00178403        8.99667950        5.98309376
      0.02030910        2.98417619        6.04857782
      9.01480133        0.00048370        0.00042724

      
      
      
      
      
