 {CO2 clathrate hydrate : I-Takeuchi    
   1.00000000000000     
    11.7947000000000006    0.0000000000000000    0.0000000000000000
     0.0000000000000000   11.7947000000000006    0.0000000000000000
     0.0000000000000000    0.0000000000000000   11.7947000000000006
   O    H    C 
    62    92     8
Direct
  0.9988083856047063  0.9989980941448580  0.2469586363804124
  0.0011579757900375  0.0008617225267626  0.7529694302616454
  0.9893054886277202  0.1952723030424401  0.1220151431430514
  0.9916203597374184  0.1905933806469481  0.8861559723459504
  0.0078332921006548  0.8088453423000678  0.1140484538395079
  0.0108417872318007  0.8045115812832278  0.8779865211323279
  0.4906279512307816  0.2457207639605925  0.0011824284231264
  0.5091165970602204  0.7539827726070324  0.9989083493623255
  0.4895201813021685  0.1172980600118844  0.1973697832874859
  0.5038666115167160  0.8840738359432091  0.1942776068763447
  0.4956900360266512  0.1159436200590559  0.8056893467369068
  0.5106334345342981  0.8826172772588471  0.8027529231887074
  0.2999732332901439  0.3820181395540240  0.0045988714909585
  0.3186681643008694  0.6185528435418752  0.0021370859519909
  0.1854460834471445  0.0001095704118714  0.3852702529526901
  0.1921417374800284  0.0009870418299418  0.6221315830789491
  0.1729201787144460  0.3207575239063680  0.1855772147915812
  0.1743317899192712  0.3176057202315644  0.8228474207328270
  0.1947994052260757  0.6883598202718348  0.1863572129268284
  0.1993633268666840  0.6858640102767704  0.8149463379720763
  0.3039598087785541  0.1883777226874392  0.3163387972744351
  0.3210817903562116  0.8212169946493177  0.3199254970997877
  0.3068659412879683  0.1880373436114010  0.6882392520705254
  0.3273949305485964  0.8200675181030813  0.6783433901967973
  0.6810687732061760  0.3810920552642911  0.9980263049546405
  0.6995936476269852  0.6175844659971209  0.9954122763087695
  0.8079655201316253  0.9990859463779276  0.3781906087022294
  0.8145115895186774  0.9997976744133621  0.6147544584333591
  0.8007066938760616  0.3139842131218785  0.1850988213329513
  0.8051132008979922  0.3115700429462610  0.8137086098402539
  0.8245535947526801  0.6822794686926525  0.1775227099392336
  0.8271099158525547  0.6791598964365597  0.8146593157188214
  0.6726562318497027  0.1797679428910039  0.3218594048492417
  0.6924666162712000  0.8125481524803804  0.3119500338773256
  0.6787522768136297  0.1786022175616867  0.6801925312205763
  0.6961625249904866  0.8115770428115181  0.6838203470518743
  0.2482198627849612  0.5070159452851959  0.4988308953758105
  0.7515098569261195  0.4929163299045460  0.5012279855645101
  0.1187560421665668  0.5013775943375798  0.6948034167090665
  0.8842886511692825  0.4946391293767920  0.6933631908073903
  0.1156281464069866  0.5053710872798816  0.3066398679144240
  0.8810198418431225  0.4986179913406726  0.3052353100009894
  0.3747955566965292  0.3101126853599687  0.5022308010266678
  0.6091460357290075  0.3066329870846058  0.5009646227361461
  0.3906152204754914  0.6930985574470786  0.4991666661948355
  0.6249173223435850  0.6898991268697625  0.4979760398121282
  0.2855642817294128  0.9325733589061455  0.9396736129515763
  0.2185090461846618  0.0652883904362846  0.0725052647995675
  0.7842055563935538  0.9358408813620920  0.9288560163406538
  0.7146305835683853  0.0713252107584363  0.0575330370415925
  0.0162615551382179  0.2483212232697870  0.5975386307684663
  0.9693781773630972  0.2388527751044300  0.4039572559379481
  0.0353719030097328  0.7626262065028053  0.5931663101534460
  0.9851194021509974  0.7502506923704095  0.4005891170701673
  0.5393542799609941  0.5844509650052940  0.2338017292942714
  0.4619933075982100  0.4014519505080806  0.2508470770747288
  0.5377895678456501  0.5986501885687131  0.7489918944214734
  0.4607732210838588  0.4155638767312352  0.7665785492912043
  0.0721042905382050  0.5684580507814163  0.9950264944051828
  0.9285607972189583  0.4308650338837111  0.0049700585648049
  0.5808355103998863  0.9428565555659887  0.4974716220069624
  0.4183627354133920  0.0577483546527637  0.5031756982919795
  0.9297642714846398  0.0000175560414645  0.2963539545811857
  0.9957952569696906  0.0701015279751776  0.2007072108313009
  0.0702910475423806  0.9999364365922568  0.7036766227177482
  0.0042372147800291  0.9297904787687100  0.7992612813880462
  0.9188407876532011  0.2380574964302100  0.1429887043883474
  0.9886869790886174  0.1878836818442726  0.0378647064151485
  0.9950018331922831  0.1199254213635987  0.8390246240729763
  0.9235292364915060  0.2334824391232119  0.8595277554958379
  0.0046170707550632  0.8796363403578779  0.1609678279902385
  0.0760270896718819  0.7661110942373871  0.1406362973435088
  0.0813665073923967  0.7617873142982468  0.8570916787130988
  0.0112905656004155  0.8118905463269216  0.9621385768502583
  0.4217349882652317  0.2948764637723842  0.9989954245218717
  0.4903109831802649  0.1985012729953726  0.9309470824293044
  0.5779808522504228  0.7047874957804712  0.0010862817418554
  0.5094855553644104  0.8012393961218436  0.0691081961045064
  0.4906130684997494  0.1614359151662474  0.1250080870639430
  0.4204695271030455  0.1436219161295417  0.2394696618488365
  0.4361721566628939  0.8602329120172808  0.2400188480063109
  0.4990323706661608  0.9685171982880529  0.1889710208780316
  0.5634661886967558  0.1397632312742234  0.7600690079356160
  0.5005824632446927  0.0315163026812237  0.8110864310473522
  0.5094820184761618  0.8384219690745355  0.8750688668612521
  0.5797072525159571  0.8563424952307828  0.7606600958683830
  0.3115499543765090  0.4657094100615164  0.0052255301058484
  0.2545426214826014  0.3621644631429898  0.0739043507609127
  0.3898622171246445  0.6646363627406967  0.0013783222259260
  0.2750988418191593  0.6431166906709586  0.9333496656390242
  0.1160676535230397  0.9986917146307495  0.3361705437022980
  0.2328681426579799  0.9340133820196009  0.3614478458556944
  0.1843469092648092  0.0020910305799505  0.5380435850005848
  0.2345367640572992  0.0718573064043296  0.6432812167588544
  0.2209316676624577  0.2698171078270917  0.2345271212071921
  0.1057779717760864  0.2739782702355637  0.1620156338667471
  0.2182461830384260  0.3413484784275778  0.8916937092727645
  0.1075829289777897  0.2715549780966715  0.8485713374213091
  0.2384316768094282  0.6602949789642371  0.1189585430658142
  0.1649244274064993  0.6202412964207376  0.2272759116728879
  0.2457287864996328  0.7341742166786686  0.7627276630271074
  0.1709698200019563  0.6202205614789340  0.7695865528766149
  0.2613905398034265  0.1203390883818443  0.3440627852675601
  0.3300189543597168  0.2307357336718610  0.3851545579770247
  0.3479200699097186  0.7735928481682257  0.3850298757573732
  0.2744046670549400  0.7692363822035913  0.2708216599683543
  0.3748677764175463  0.1628328542434705  0.7320601076540962
  0.2597190784451065  0.2356592653687522  0.7406200501700384
  0.2802547618691563  0.8880552447456374  0.6590140673288579
  0.3932772955233688  0.8462036962852668  0.7255833097317679
  0.6099122510014316  0.3349403795032219  0.9987693906759709
  0.7247013577854218  0.3565165976622871  0.0667672280908423
  0.6880946427545234  0.5338784787784004  0.9947965881111107
  0.7452224380700226  0.6375085080463774  0.9262747826471679
  0.8157180785080190  0.9978844247150227  0.4623058342902784
  0.7653174051499400  0.9283822359817748  0.3569547261279359
  0.8839751875214729  0.0012553846443234  0.6637410138180457
  0.7671054392702853  0.0659023374238892  0.6385819817512942
  0.7543693122609672  0.2656628870200793  0.2373192282573561
  0.8289884265533181  0.3796919074402408  0.2304416255997562
  0.7614300794596401  0.3395835108153947  0.8810939903032211
  0.8349950882055349  0.3796934331813629  0.7728091931730884
  0.7807807104527265  0.6584537213055466  0.1086238100325952
  0.8914258822936511  0.7281379639838714  0.1518143407944585
  0.7791414624167662  0.7301351306037250  0.7657115799960734
  0.8943036577814636  0.7258696529175224  0.8382385277211037
  0.7197907344515085  0.1117989426730771  0.3413043588530004
  0.6068305858247467  0.1536136271505108  0.2745471444438489
  0.6244406302728066  0.8377397776511037  0.2681260942769893
  0.7394194544410460  0.7647204725507939  0.2595869658390094
  0.6519239544308458  0.2261801393008492  0.6150455806889894
  0.7254397308364764  0.2306302502358235  0.7292122315873053
  0.7387200933136080  0.8795942860686300  0.6559998934267937
  0.6699713612833272  0.7692188204257328  0.6150591349972689
  0.2999110981240131  0.5740589432401879  0.4965566897283881
  0.1997697483647646  0.5092729584981599  0.4292581530605750
  0.6998985955641936  0.4258276581053164  0.5035660653524487
  0.8000411473804675  0.4906937190184211  0.5707418742936942
  0.1408791325285904  0.4318642866741195  0.7383301001811784
  0.1632691752563974  0.5007157758143826  0.6229179135907433
  0.8651681524942313  0.5657320442926785  0.7366849186932037
  0.9687130160924615  0.4951123803030569  0.6859615857730442
  0.1347633054964825  0.4342157120603448  0.2634201346378426
  0.0312061102482966  0.5049609895834686  0.3140109882057328
  0.8585812074390939  0.5680989588084291  0.2618024688342961
  0.8365798049793198  0.4991506386711067  0.3771616411673576
  0.3315490177461817  0.3828124761064416  0.5018209411798968
  0.3503375564564635  0.2681795156310230  0.5719513035766444
  0.5246642358691981  0.3142616862928998  0.5007141850951432
  0.6292750638960831  0.2595770369726499  0.4328049299841299
  0.4751026258748947  0.6854956232983416  0.4994437267897823
  0.3705171475481697  0.7402010357454056  0.5673036008919676
  0.6682159042699723  0.6172337517078857  0.4982381255976431
  0.6492027718887893  0.7319903257388276  0.4283006533906866
  0.2520028844756020  0.9988860816105244  0.0061257085604988
  0.7494591666314782  0.0036176062724605  0.9931697925346394
  0.9928424597962244  0.2434524944692216  0.5007199074127424
  0.0102414378455340  0.7566167733607601  0.4968938249071290
  0.5007418793587955  0.4929036163836884  0.2422257475140344
  0.4992214754475180  0.5071511626079779  0.7578563631786190
  0.0003358034445623  0.4996580823483005  0.9999953692371794
  0.4995966633863533  0.0002962624155484  0.5003217514151121
 
  0.00000000E+00  0.00000000E+00  0.00000000E+00
  0.00000000E+00  0.00000000E+00  0.00000000E+00
  0.00000000E+00  0.00000000E+00  0.00000000E+00
  0.00000000E+00  0.00000000E+00  0.00000000E+00
  0.00000000E+00  0.00000000E+00  0.00000000E+00
  0.00000000E+00  0.00000000E+00  0.00000000E+00
  0.00000000E+00  0.00000000E+00  0.00000000E+00
  0.00000000E+00  0.00000000E+00  0.00000000E+00
  0.00000000E+00  0.00000000E+00  0.00000000E+00
  0.00000000E+00  0.00000000E+00  0.00000000E+00
  0.00000000E+00  0.00000000E+00  0.00000000E+00
  0.00000000E+00  0.00000000E+00  0.00000000E+00
  0.00000000E+00  0.00000000E+00  0.00000000E+00
  0.00000000E+00  0.00000000E+00  0.00000000E+00
  0.00000000E+00  0.00000000E+00  0.00000000E+00
  0.00000000E+00  0.00000000E+00  0.00000000E+00
  0.00000000E+00  0.00000000E+00  0.00000000E+00
  0.00000000E+00  0.00000000E+00  0.00000000E+00
  0.00000000E+00  0.00000000E+00  0.00000000E+00
  0.00000000E+00  0.00000000E+00  0.00000000E+00
  0.00000000E+00  0.00000000E+00  0.00000000E+00
  0.00000000E+00  0.00000000E+00  0.00000000E+00
  0.00000000E+00  0.00000000E+00  0.00000000E+00
  0.00000000E+00  0.00000000E+00  0.00000000E+00
  0.00000000E+00  0.00000000E+00  0.00000000E+00
  0.00000000E+00  0.00000000E+00  0.00000000E+00
  0.00000000E+00  0.00000000E+00  0.00000000E+00
  0.00000000E+00  0.00000000E+00  0.00000000E+00
  0.00000000E+00  0.00000000E+00  0.00000000E+00
  0.00000000E+00  0.00000000E+00  0.00000000E+00
  0.00000000E+00  0.00000000E+00  0.00000000E+00
  0.00000000E+00  0.00000000E+00  0.00000000E+00
  0.00000000E+00  0.00000000E+00  0.00000000E+00
  0.00000000E+00  0.00000000E+00  0.00000000E+00
  0.00000000E+00  0.00000000E+00  0.00000000E+00
  0.00000000E+00  0.00000000E+00  0.00000000E+00
  0.00000000E+00  0.00000000E+00  0.00000000E+00
  0.00000000E+00  0.00000000E+00  0.00000000E+00
  0.00000000E+00  0.00000000E+00  0.00000000E+00
  0.00000000E+00  0.00000000E+00  0.00000000E+00
  0.00000000E+00  0.00000000E+00  0.00000000E+00
  0.00000000E+00  0.00000000E+00  0.00000000E+00
  0.00000000E+00  0.00000000E+00  0.00000000E+00
  0.00000000E+00  0.00000000E+00  0.00000000E+00
  0.00000000E+00  0.00000000E+00  0.00000000E+00
  0.00000000E+00  0.00000000E+00  0.00000000E+00
  0.00000000E+00  0.00000000E+00  0.00000000E+00
  0.00000000E+00  0.00000000E+00  0.00000000E+00
  0.00000000E+00  0.00000000E+00  0.00000000E+00
  0.00000000E+00  0.00000000E+00  0.00000000E+00
  0.00000000E+00  0.00000000E+00  0.00000000E+00
  0.00000000E+00  0.00000000E+00  0.00000000E+00
  0.00000000E+00  0.00000000E+00  0.00000000E+00
  0.00000000E+00  0.00000000E+00  0.00000000E+00
  0.00000000E+00  0.00000000E+00  0.00000000E+00
  0.00000000E+00  0.00000000E+00  0.00000000E+00
  0.00000000E+00  0.00000000E+00  0.00000000E+00
  0.00000000E+00  0.00000000E+00  0.00000000E+00
  0.00000000E+00  0.00000000E+00  0.00000000E+00
  0.00000000E+00  0.00000000E+00  0.00000000E+00
  0.00000000E+00  0.00000000E+00  0.00000000E+00
  0.00000000E+00  0.00000000E+00  0.00000000E+00
  0.00000000E+00  0.00000000E+00  0.00000000E+00
  0.00000000E+00  0.00000000E+00  0.00000000E+00
  0.00000000E+00  0.00000000E+00  0.00000000E+00
  0.00000000E+00  0.00000000E+00  0.00000000E+00
  0.00000000E+00  0.00000000E+00  0.00000000E+00
  0.00000000E+00  0.00000000E+00  0.00000000E+00
  0.00000000E+00  0.00000000E+00  0.00000000E+00
  0.00000000E+00  0.00000000E+00  0.00000000E+00
  0.00000000E+00  0.00000000E+00  0.00000000E+00
  0.00000000E+00  0.00000000E+00  0.00000000E+00
  0.00000000E+00  0.00000000E+00  0.00000000E+00
  0.00000000E+00  0.00000000E+00  0.00000000E+00
  0.00000000E+00  0.00000000E+00  0.00000000E+00
  0.00000000E+00  0.00000000E+00  0.00000000E+00
  0.00000000E+00  0.00000000E+00  0.00000000E+00
  0.00000000E+00  0.00000000E+00  0.00000000E+00
  0.00000000E+00  0.00000000E+00  0.00000000E+00
  0.00000000E+00  0.00000000E+00  0.00000000E+00
  0.00000000E+00  0.00000000E+00  0.00000000E+00
  0.00000000E+00  0.00000000E+00  0.00000000E+00
  0.00000000E+00  0.00000000E+00  0.00000000E+00
  0.00000000E+00  0.00000000E+00  0.00000000E+00
  0.00000000E+00  0.00000000E+00  0.00000000E+00
  0.00000000E+00  0.00000000E+00  0.00000000E+00
  0.00000000E+00  0.00000000E+00  0.00000000E+00
  0.00000000E+00  0.00000000E+00  0.00000000E+00
  0.00000000E+00  0.00000000E+00  0.00000000E+00
  0.00000000E+00  0.00000000E+00  0.00000000E+00
  0.00000000E+00  0.00000000E+00  0.00000000E+00
  0.00000000E+00  0.00000000E+00  0.00000000E+00
  0.00000000E+00  0.00000000E+00  0.00000000E+00
  0.00000000E+00  0.00000000E+00  0.00000000E+00
  0.00000000E+00  0.00000000E+00  0.00000000E+00
  0.00000000E+00  0.00000000E+00  0.00000000E+00
  0.00000000E+00  0.00000000E+00  0.00000000E+00
  0.00000000E+00  0.00000000E+00  0.00000000E+00
  0.00000000E+00  0.00000000E+00  0.00000000E+00
  0.00000000E+00  0.00000000E+00  0.00000000E+00
  0.00000000E+00  0.00000000E+00  0.00000000E+00
  0.00000000E+00  0.00000000E+00  0.00000000E+00
  0.00000000E+00  0.00000000E+00  0.00000000E+00
  0.00000000E+00  0.00000000E+00  0.00000000E+00
  0.00000000E+00  0.00000000E+00  0.00000000E+00
  0.00000000E+00  0.00000000E+00  0.00000000E+00
  0.00000000E+00  0.00000000E+00  0.00000000E+00
  0.00000000E+00  0.00000000E+00  0.00000000E+00
  0.00000000E+00  0.00000000E+00  0.00000000E+00
  0.00000000E+00  0.00000000E+00  0.00000000E+00
  0.00000000E+00  0.00000000E+00  0.00000000E+00
  0.00000000E+00  0.00000000E+00  0.00000000E+00
  0.00000000E+00  0.00000000E+00  0.00000000E+00
  0.00000000E+00  0.00000000E+00  0.00000000E+00
  0.00000000E+00  0.00000000E+00  0.00000000E+00
  0.00000000E+00  0.00000000E+00  0.00000000E+00
  0.00000000E+00  0.00000000E+00  0.00000000E+00
  0.00000000E+00  0.00000000E+00  0.00000000E+00
  0.00000000E+00  0.00000000E+00  0.00000000E+00
  0.00000000E+00  0.00000000E+00  0.00000000E+00
  0.00000000E+00  0.00000000E+00  0.00000000E+00
  0.00000000E+00  0.00000000E+00  0.00000000E+00
  0.00000000E+00  0.00000000E+00  0.00000000E+00
  0.00000000E+00  0.00000000E+00  0.00000000E+00
  0.00000000E+00  0.00000000E+00  0.00000000E+00
  0.00000000E+00  0.00000000E+00  0.00000000E+00
  0.00000000E+00  0.00000000E+00  0.00000000E+00
  0.00000000E+00  0.00000000E+00  0.00000000E+00
  0.00000000E+00  0.00000000E+00  0.00000000E+00
  0.00000000E+00  0.00000000E+00  0.00000000E+00
  0.00000000E+00  0.00000000E+00  0.00000000E+00
  0.00000000E+00  0.00000000E+00  0.00000000E+00
  0.00000000E+00  0.00000000E+00  0.00000000E+00
  0.00000000E+00  0.00000000E+00  0.00000000E+00
  0.00000000E+00  0.00000000E+00  0.00000000E+00
  0.00000000E+00  0.00000000E+00  0.00000000E+00
  0.00000000E+00  0.00000000E+00  0.00000000E+00
  0.00000000E+00  0.00000000E+00  0.00000000E+00
  0.00000000E+00  0.00000000E+00  0.00000000E+00
  0.00000000E+00  0.00000000E+00  0.00000000E+00
  0.00000000E+00  0.00000000E+00  0.00000000E+00
  0.00000000E+00  0.00000000E+00  0.00000000E+00
  0.00000000E+00  0.00000000E+00  0.00000000E+00
  0.00000000E+00  0.00000000E+00  0.00000000E+00
  0.00000000E+00  0.00000000E+00  0.00000000E+00
  0.00000000E+00  0.00000000E+00  0.00000000E+00
  0.00000000E+00  0.00000000E+00  0.00000000E+00
  0.00000000E+00  0.00000000E+00  0.00000000E+00
  0.00000000E+00  0.00000000E+00  0.00000000E+00
  0.00000000E+00  0.00000000E+00  0.00000000E+00
  0.00000000E+00  0.00000000E+00  0.00000000E+00
  0.00000000E+00  0.00000000E+00  0.00000000E+00
  0.00000000E+00  0.00000000E+00  0.00000000E+00
  0.00000000E+00  0.00000000E+00  0.00000000E+00
  0.00000000E+00  0.00000000E+00  0.00000000E+00
  0.00000000E+00  0.00000000E+00  0.00000000E+00
  0.00000000E+00  0.00000000E+00  0.00000000E+00
  0.00000000E+00  0.00000000E+00  0.00000000E+00
  0.00000000E+00  0.00000000E+00  0.00000000E+00
  0.00000000E+00  0.00000000E+00  0.00000000E+00
  0.00000000E+00  0.00000000E+00  0.00000000E+00
  0.00000000E+00  0.00000000E+00  0.00000000E+00
